InboundTrucks  = 12;
OutboundTrucks = 8;
InboundDoors   = 4;
OutboundDoors  = 4;
ReleaseTime    = [74,108,24,116,69,118,45,59,6,84,64,27];
UnloadTime     = [39,27,29,35,42,45,26,30,34,22,28,26];
LoadTime       = [7,6,12,13,10,8,12,10];
TransferTime   = [| 0,50,35,0,0,14,37,39 | 29,23,0,0,31,0,0,0 | 0,37,0,0,0,10,39,23 | 0,16,0,11,33,0,10,0 | 0,0,12,37,21,0,0,0 | 35,0,46,40,20,0,42,0 | 0,0,10,15,0,12,0,0 | 44,0,17,0,48,39,50,0 | 0,22,0,38,18,0,19,0 | 31,0,14,13,45,0,32,0 | 13,22,0,30,0,0,19,0 | 0,0,0,17,43,0,25,0 |];
